(set-logic ALL)
(declare-const number_VAR Int)
(assert (< 1 number_VAR))
(assert (not (< number_VAR 4)))
(assert (not (< number_VAR 2)))
(assert (not (= (mod number_VAR 2) 0)))
(check-sat)
(get-value (number_VAR))
